c This is QMaxSAT 2017 based on 14.07
c This is Glucose 3.0
c This is MiniSat 2.2.0
c WARNING: for repeatability, setting FPU to use double precision
c card = mrwto, comp = 0, pmodel = 0, narr = 16, mct = 76, verb = 0
cr firstCPXsol 0 0 0
c top = 189219
c |  Number of variables:    16562                                            |
c |  Number of clauses:      1320407                                          |
c |  Weight of hard clauses: 189219                                           |
c |  Number of soft clauses: 127200                                           |
c |  Number of unit soft clauses: 0                                           |
c |  Maximum Cardinality (by unit): 4163168      (0           )               |
c last restart ## conflicts  :  0 1022 
o 266 | cpuTime 0.148439 s
c Sum of weights = 260198
c A number of soft clauses remained = 7950
c MRWTO encoding for Pseudo-Boolean Constraints
c sizeMax=266
c No.0 Divisor=7	generated by pow1
c No.1 Divisor=7	generated by pow1
c No.2 Divisor=7	generated by pow1
c p0= 7	p1= 7	p2= 7	
c number of digits = 4
c linkingVar[0].size = 7, linkingVar[1].size = 7, linkingVar[2].size = 6, linkingVar[3].size = 1, 
c Pseudo-Boolean Constraints: 116584 variables and 701592 clauses
c Sum of weights = 260198
c A number of soft clauses remained = 7950
c MRWTO encoding for Pseudo-Boolean Constraints
c sizeMax=266
c No.0 Divisor=7	generated by pow1
c No.1 Divisor=7	generated by pow1
c No.2 Divisor=7	generated by pow1
c p0= 7	p1= 7	p2= 7	
c number of digits = 4
c linkingVar[0].size = 7, linkingVar[1].size = 7, linkingVar[2].size = 6, linkingVar[3].size = 1, 
c Pseudo-Boolean Constraints: 116584 variables and 701592 clauses
c Sum of weights = 260198
c A number of soft clauses remained = 7950
c MRWTO encoding for Pseudo-Boolean Constraints
c sizeMax=266
c No.0 Divisor=7	generated by pow1
c No.1 Divisor=7	generated by pow1
c No.2 Divisor=7	generated by pow1
c p0= 7	p1= 7	p2= 7	
c number of digits = 4
c linkingVar[0].size = 7, linkingVar[1].size = 7, linkingVar[2].size = 6, linkingVar[3].size = 1, 
c Pseudo-Boolean Constraints: 116584 variables and 701592 clauses
c Sum of weights = 260198
c A number of soft clauses remained = 7950
c MRWTO encoding for Pseudo-Boolean Constraints
c sizeMax=266
c No.0 Divisor=7	generated by pow1
c No.1 Divisor=7	generated by pow1
c No.2 Divisor=7	generated by pow1
c p0= 7	p1= 7	p2= 7	
c number of digits = 4
c linkingVar[0].size = 7, linkingVar[1].size = 7, linkingVar[2].size = 6, linkingVar[3].size = 1, 
c Pseudo-Boolean Constraints: 116584 variables and 701592 clauses
c Sum of weights = 260198
c A number of soft clauses remained = 7950
c MRWTO encoding for Pseudo-Boolean Constraints
c sizeMax=266
c No.0 Divisor=7	generated by pow1
c No.1 Divisor=7	generated by pow1
c No.2 Divisor=7	generated by pow1
c p0= 7	p1= 7	p2= 7	
c number of digits = 4
c linkingVar[0].size = 7, linkingVar[1].size = 7, linkingVar[2].size = 6, linkingVar[3].size = 1, 
c Pseudo-Boolean Constraints: 116584 variables and 701592 clauses
c Sum of weights = 260198
c A number of soft clauses remained = 7950
c MRWTO encoding for Pseudo-Boolean Constraints
c sizeMax=266
c No.0 Divisor=7	generated by pow1
c No.1 Divisor=7	generated by pow1
c No.2 Divisor=7	generated by pow1
c p0= 7	p1= 7	p2= 7	
c number of digits = 4
c linkingVar[0].size = 7, linkingVar[1].size = 7, linkingVar[2].size = 6, linkingVar[3].size = 1, 
c Pseudo-Boolean Constraints: 116584 variables and 701592 clauses
c Sum of weights = 260198
c A number of soft clauses remained = 7950
c MRWTO encoding for Pseudo-Boolean Constraints
c sizeMax=266
c No.0 Divisor=7	generated by pow1
c No.1 Divisor=7	generated by pow1
c No.2 Divisor=7	generated by pow1
c p0= 7	p1= 7	p2= 7	
c number of digits = 4
c linkingVar[0].size = 7, linkingVar[1].size = 7, linkingVar[2].size = 6, linkingVar[3].size = 1, 
c Pseudo-Boolean Constraints: 116584 variables and 701592 clauses
c Sum of weights = 260198
c A number of soft clauses remained = 7950
c MRWTO encoding for Pseudo-Boolean Constraints
c sizeMax=266
c No.0 Divisor=7	generated by pow1
c No.1 Divisor=7	generated by pow1
c No.2 Divisor=7	generated by pow1
c p0= 7	p1= 7	p2= 7	
c number of digits = 4
c linkingVar[0].size = 7, linkingVar[1].size = 7, linkingVar[2].size = 6, linkingVar[3].size = 1, 
c Pseudo-Boolean Constraints: 116584 variables and 701592 clauses
c Sum of weights = 260198
c A number of soft clauses remained = 7950
c MRWTO encoding for Pseudo-Boolean Constraints
c sizeMax=266
c No.0 Divisor=7	generated by pow1
c No.1 Divisor=7	generated by pow1
c No.2 Divisor=7	generated by pow1
c p0= 7	p1= 7	p2= 7	
c number of digits = 4
c linkingVar[0].size = 7, linkingVar[1].size = 7, linkingVar[2].size = 6, linkingVar[3].size = 1, 
c Pseudo-Boolean Constraints: 116584 variables and 701592 clauses
c Sum of weights = 260198
c A number of soft clauses remained = 7950
c MRWTO encoding for Pseudo-Boolean Constraints
c sizeMax=266
c No.0 Divisor=7	generated by pow1
c No.1 Divisor=7	generated by pow1
c No.2 Divisor=7	generated by pow1
c p0= 7	p1= 7	p2= 7	
c number of digits = 4
c linkingVar[0].size = 7, linkingVar[1].size = 7, linkingVar[2].size = 6, linkingVar[3].size = 1, 
c Pseudo-Boolean Constraints: 116584 variables and 701592 clauses
c Sum of weights = 260198
c A number of soft clauses remained = 7950
c MRWTO encoding for Pseudo-Boolean Constraints
c sizeMax=266
c No.0 Divisor=7	generated by pow1
c No.1 Divisor=7	generated by pow1
c No.2 Divisor=7	generated by pow1
c p0= 7	p1= 7	p2= 7	
c number of digits = 4
c linkingVar[0].size = 7, linkingVar[1].size = 7, linkingVar[2].size = 6, linkingVar[3].size = 1, 
c Pseudo-Boolean Constraints: 116584 variables and 701592 clauses
c Sum of weights = 260198
c A number of soft clauses remained = 7950
c MRWTO encoding for Pseudo-Boolean Constraints
c sizeMax=266
c No.0 Divisor=7	generated by pow1
c No.1 Divisor=7	generated by pow1
c No.2 Divisor=7	generated by pow1
c p0= 7	p1= 7	p2= 7	
c number of digits = 4
c linkingVar[0].size = 7, linkingVar[1].size = 7, linkingVar[2].size = 6, linkingVar[3].size = 1, 
c Pseudo-Boolean Constraints: 116584 variables and 701592 clauses
c Sum of weights = 260198
c A number of soft clauses remained = 7950
c MRWTO encoding for Pseudo-Boolean Constraints
c sizeMax=266
c No.0 Divisor=7	generated by pow1
c No.1 Divisor=7	generated by pow1
c No.2 Divisor=7	generated by pow1
c p0= 7	p1= 7	p2= 7	
c number of digits = 4
c linkingVar[0].size = 7, linkingVar[1].size = 7, linkingVar[2].size = 6, linkingVar[3].size = 1, 
c Pseudo-Boolean Constraints: 116584 variables and 701592 clauses
c Sum of weights = 260198
c A number of soft clauses remained = 7950
c MRWTO encoding for Pseudo-Boolean Constraints
c sizeMax=266
c No.0 Divisor=7	generated by pow1
c No.1 Divisor=7	generated by pow1
c No.2 Divisor=7	generated by pow1
c p0= 7	p1= 7	p2= 7	
c number of digits = 4
c linkingVar[0].size = 7, linkingVar[1].size = 7, linkingVar[2].size = 6, linkingVar[3].size = 1, 
c Pseudo-Boolean Constraints: 116584 variables and 701592 clauses
c Sum of weights = 260198
c A number of soft clauses remained = 7950
c MRWTO encoding for Pseudo-Boolean Constraints
c sizeMax=266
c No.0 Divisor=7	generated by pow1
c No.1 Divisor=7	generated by pow1
c No.2 Divisor=7	generated by pow1
c p0= 7	p1= 7	p2= 7	
c number of digits = 4
c linkingVar[0].size = 7, linkingVar[1].size = 7, linkingVar[2].size = 6, linkingVar[3].size = 1, 
c Pseudo-Boolean Constraints: 116584 variables and 701592 clauses
c Sum of weights = 260198
c A number of soft clauses remained = 7950
c MRWTO encoding for Pseudo-Boolean Constraints
c sizeMax=266
c No.0 Divisor=7	generated by pow1
c No.1 Divisor=7	generated by pow1
c No.2 Divisor=7	generated by pow1
c p0= 7	p1= 7	p2= 7	
c number of digits = 4
c linkingVar[0].size = 7, linkingVar[1].size = 7, linkingVar[2].size = 6, linkingVar[3].size = 1, 
c Pseudo-Boolean Constraints: 116584 variables and 701592 clauses
c last restart ## conflicts  :  406 18396 
o 261 | cpuTime 1000.46 s
c last restart ## conflicts  :  272 20392 
o 254 | cpuTime 1689.96 s
c last restart ## conflicts  :  365 31026 
o 229 | cpuTime 2543.57 s
s UNKNOWN
c Search is stopped by a limit (maybe time-limit)
cr positiVarArr: [ | 31(1->16) | 146(1->40) | 215(1->18) | 348(1->60) | 389(1->10) | 536(1->66) | 604(1->43) | 674(1->22) | 762(1->19) | 895(1->61) | 996(1->71) | 1060(1->44) | 1157(1->50) | 1255(1->57) | 1295(1->6) | 1395(1->15) | 1470(2->1) | 1571(3->9) | 1705(4->52) | 1780(5->36) | 1830(6->1) | 1924(7->1) | 2008(8->1) | 2133(9->25) | 2261(10->62) | 2358(11->68) | 2384(12->3) | 2468(13->1) | 2598(14->35) | 2713(15->59) | 2739(16->1) | 2828(17->1) | 2916(18->1) | 3032(19->14) | 3138(20->29) | 3248(21->48) | 3338(22->47) | 3438(23->56) | 3545(24->72) | 3557(25->1) | 3662(26->7) | 3747(27->1) | 3867(28->30) | 3936(29->8) | 4056(30->37) | 4165(31->55) | 4250(32->49) | 4355(33->63) | 4410(34->27) | 4538(35->64) | 4591(36->26) | 4726(37->70) | 4812(38->65) | 4835(39->1) | 4987(40->58) | 5043(41->23) | 5113(42->2) | 5243(43->41) | 5313(44->20) | 5437(45->53) | 5529(46->54) | 5635(47->69) | 5657(48->1) | 5772(49->24) | 5885(50->46) | 5942(51->12) | 6034(52->13) | 6150(53->38) | 6214(54->11) | 6311(55->17) | 6418(56->33) | 6521(57->45) | 6609(58->42) | 6709(59->51) | 6788(60->39) | 6907(61->67) | 7004(62->73) | 7008(63->1) | 7134(64->21) | 7235(65->31) | 7327(66->32) | 7390(67->4) | 7553(68->76) | 7573(69->5) | 7646(70->1) | 7740(71->1) | 7875(72->34) | 8007(73->75) | 8051(74->28) | 8188(75->74) | 8193(76->1) | ]
cr the 1-th chain: [ 1->16->1 ] (#non-depot=1) {#cumul.=2}
cr the 2-th chain: [ 1->40->58->42->2->1 ] (#non-depot=4) {#cumul.=6}
cr the 3-th chain: [ 1->18->1 ] (#non-depot=1) {#cumul.=7}
cr the 4-th chain: [ 1->60->39->1 ] (#non-depot=2) {#cumul.=9}
cr the 5-th chain: [ 1->10->62->73->75->74->28->30->37->70->1 ] (#non-depot=9) {#cumul.=18}
cr the 6-th chain: [ 1->66->32->49->24->72->34->27->1 ] (#non-depot=7) {#cumul.=25}
cr the 7-th chain: [ 1->43->41->23->56->33->63->1 ] (#non-depot=6) {#cumul.=31}
cr the 8-th chain: [ 1->22->47->69->5->36->26->7->1 ] (#non-depot=7) {#cumul.=38}
cr the 9-th chain: [ 1->19->14->35->64->21->48->1 ] (#non-depot=6) {#cumul.=44}
cr the 10-th chain: [ 1->61->67->4->52->13->1 ] (#non-depot=5) {#cumul.=49}
cr the 11-th chain: [ 1->71->1 ] (#non-depot=1) {#cumul.=50}
cr the 12-th chain: [ 1->44->20->29->8->1 ] (#non-depot=4) {#cumul.=54}
cr the 13-th chain: [ 1->50->46->54->11->68->76->1 ] (#non-depot=6) {#cumul.=60}
cr the 14-th chain: [ 1->57->45->53->38->65->31->55->17->1 ] (#non-depot=8) {#cumul.=68}
cr the 15-th chain: [ 1->6->1 ] (#non-depot=1) {#cumul.=69}
cr the 16-th chain: [ 1->15->59->51->12->3->9->25->1 ] (#non-depot=7) {#cumul.=76}
c Latest Answer = 0 by 4 loops
c restarts              : 31627
c conflicts             : 4841761        (1346 /sec)
c decisions             : 150843707      (0.00 % random) (41939 /sec)
c propagations          : 39908297435    (11095688 /sec)
c conflict literals     : 551107005      (33.34 % deleted)
c Memory used           : 1619.00 MB
c CPU time              : 3596.74 s
